p cnf 40 34
-1 33 35 0 
-2 36 0 
-3 6 37 0 
-4 37 0 
-5 38 0 
-6 3 -7 -8 12 16 -2 37 0 
-9 10 37 0 
-9 10 39 -28 0 
-10 9 39 -28 0 
-10 9 37 0 
-11 38 0 
-12 8 16 -13 38 0 
-14 38 0 
-15 -16 8 12 38 0 
-17 18 40 0 
-18 17 38 0 
-19 40 0 
-20 -21 38 0 
-22 23 38 0 
-23 22 -4 37 0 
-23 22 -4 39 -28 0 
-4 39 -28 0 
-24 -23 22 39 -28 0 
-25 -23 22 37 0 
-1 33 36 0 
-26 38 0 
-27 39 -28 0 
-28 37 0 
-29 38 0 
-30 -31 -12 8 16 -13 38 0 
-32 39 -28 0 
-33 1 37 0 
-23 22 -34 39 -28 0 
-23 22 -34 37 0 
